p cnf 1189 14
26 28 29 38 59 65 111 112 113 217 324 378 428 429 430 431 432 433 470 471 507 560 572 634 652 657 658 675 734 748 749 750 751 772 788 789 790 791 811 812 813 814 832 846 847 867 868 871 872 873 874 875 876 900 916 931 932 933 934 935 936 944 959 978 998 999 1010 1015 1047 1049 1050 1076 1118 1119 1120 1121 1122 1139 1144 1145 1150 1154 1155 1156 1163 1164 1170 1174 1177 1179 1181 1183 1184 1185 1186 1188 1189 0
26 48 49 59 65 111 145 280 283 338 339 429 430 431 432 433 434 464 471 571 572 633 634 653 654 655 675 725 734 748 749 750 751 784 785 786 788 789 790 791 807 808 809 811 812 813 814 847 851 867 868 872 873 874 875 876 916 931 932 933 934 935 936 959 1010 1015 1047 1049 1050 1076 1118 1119 1120 1121 1122 1139 1154 1155 1156 1163 1164 1170 1174 1177 1179 1181 1183 1184 1185 1186 1188 1189 0
26 59 62 65 111 120 429 430 431 432 433 464 471 507 560 572 578 633 675 679 683 726 734 735 748 749 750 751 757 758 759 760 775 788 789 790 791 792 793 794 795 798 799 811 812 813 814 821 822 823 824 827 828 847 856 859 860 867 868 869 870 872 873 874 875 876 878 881 882 916 918 922 931 932 933 934 935 936 939 942 943 959 963 967 1010 1015 1018 1027 1032 1047 1049 1050 1051 1055 1057 1058 1076 1084 1088 1118 1119 1120 1121 1122 1129 1132 1133 1139 1143 1154 1155 1156 1160 1161 1162 1163 1164 1167 1168 1170 1172 1174 1175 1177 1178 1179 1180 1181 1183 1184 1185 1186 1188 1189 0
26 59 111 429 430 431 433 464 471 507 572 634 675 734 748 749 751 788 789 791 811 812 814 847 867 868 872 873 874 875 876 916 931 932 933 934 935 959 1010 1015 1047 1049 1050 1076 1118 1119 1120 1121 1122 1139 1154 1155 1156 1163 1164 1170 1174 1177 1179 1181 1183 1184 1185 1186 1188 1189 0
26 59 111 430 431 432 433 464 507 572 634 675 734 748 749 750 751 788 789 790 791 811 812 813 814 847 867 868 872 873 874 875 876 916 931 932 933 934 935 936 959 1010 1047 1049 1050 1076 1118 1119 1120 1121 1122 1139 1154 1155 1156 1163 1164 1170 1174 1177 1179 1181 1183 1184 1185 1186 1188 1189 0
26 59 111 429 430 432 433 464 471 507 572 634 675 734 748 750 751 788 790 791 811 813 814 847 867 872 873 874 875 876 916 931 932 933 934 935 936 959 1010 1015 1047 1050 1076 1118 1119 1120 1121 1122 1139 1154 1155 1156 1163 1164 1170 1174 1177 1179 1181 1183 1184 1185 1186 1188 1189 0
26 59 111 429 431 432 433 464 471 507 572 634 675 734 749 750 751 789 790 791 812 813 814 847 868 872 873 874 875 876 916 931 932 933 934 935 936 959 1010 1015 1047 1049 1076 1118 1119 1120 1121 1122 1139 1154 1155 1156 1163 1164 1170 1174 1177 1179 1181 1183 1184 1185 1186 1188 1189 0
26 59 111 429 430 431 432 433 464 471 507 572 634 675 734 748 749 750 751 788 789 790 791 811 812 813 814 847 867 868 872 873 874 875 876 916 931 932 933 934 935 936 959 1010 1015 1047 1049 1050 1076 1118 1119 1120 1121 1122 1139 1154 1155 1156 1163 1164 1170 1174 1177 1179 1181 1183 1184 1185 1186 1188 1189 0
26 28 29 38 65 111 112 113 217 324 378 428 429 430 431 432 433 464 470 471 507 572 634 675 734 748 749 750 751 788 789 790 791 811 812 813 814 832 851 867 868 873 874 875 876 900 931 932 933 934 935 936 944 978 998 999 1015 1049 1050 1118 1119 1120 1121 1122 1139 1144 1145 1150 1155 1156 1163 1164 1170 1174 1177 1179 1181 1183 1184 1185 1186 1188 1189 0
27 58 59 65 111 120 160 429 430 431 432 433 464 471 507 560 572 633 634 675 683 726 734 735 748 749 750 751 774 788 789 790 791 794 795 796 797 798 799 811 812 813 814 823 824 825 826 827 828 847 851 855 856 860 867 868 872 873 874 875 876 877 878 879 880 881 882 916 918 919 920 921 922 931 932 933 934 935 936 943 959 963 964 965 966 967 1010 1015 1018 1020 1022 1024 1026 1047 1049 1050 1051 1052 1053 1054 1055 1076 1084 1085 1086 1087 1088 1118 1119 1120 1121 1122 1128 1132 1139 1142 1154 1155 1156 1163 1164 1167 1169 1170 1172 1174 1176 1177 1179 1180 1181 1183 1184 1185 1186 1188 1189 0
26 59 65 111 429 430 431 432 433 464 471 507 572 634 675 734 748 749 750 751 788 789 790 791 811 812 813 814 847 851 867 868 872 873 874 875 876 916 931 932 933 934 935 936 959 1010 1015 1047 1049 1050 1076 1118 1119 1120 1121 1122 1139 1154 1155 1156 1163 1164 1170 1174 1177 1179 1181 1183 1184 1185 1186 1188 1189 0
574 575 0
28 29 112 113 226 327 381 468 508 575 0
26 28 29 35 36 38 59 65 111 112 113 120 121 122 217 223 226 229 232 235 324 326 327 328 329 330 378 380 381 382 383 384 464 470 471 507 572 578 634 675 679 734 735 748 749 750 757 758 759 788 789 790 792 793 794 811 812 813 821 822 823 832 837 847 851 856 860 867 868 869 870 872 873 874 875 876 878 879 880 881 882 900 903 931 932 933 934 935 936 938 939 940 941 942 943 944 947 978 986 998 999 1015 1016 1017 1032 1049 1050 1057 1058 1118 1119 1120 1121 1122 1129 1130 1131 1132 1133 1139 1143 1144 1145 1148 1149 1150 1155 1156 1158 1161 1162 1163 1164 1167 1168 1170 1172 1174 1176 1177 1178 1179 1180 1183 1184 1185 1186 1188 1189 0
